;; translated from ./ctigar/ex1.c.vmt
;; original benchmark available at: https://es-static.fbk.eu/people/griggio/ic3ia/index.html
;; author: Alberto Griggio <griggio@fbk.eu>
(set-logic HORN)
(declare-fun state (Bool Bool Bool Bool Bool Int Int Int Int) Bool)
(assert (forall ((|.s.2| Bool) (|.s.3| Bool) (|.s.0| Bool) (|.s.1| Bool) (|.s.4.next| Bool) (|.s.0.next| Bool) (|.s.1.next| Bool) (|.s.2.next| Bool) (|.s.3.next| Bool) (|main.xa.next| Int) (|main.xa| Int) (|main.ya.next| Int) (|main.ya| Int) (|main.x.next| Int) (|main.x| Int) (|main.y.next| Int) (|main.y| Int) (|.inputVar.0| Int) (|.s.4| Bool)) (=> (let ((.def_20 (not .s.4)))
(let ((.def_17 (not .s.3)))
(let ((.def_14 (not .s.2)))
(let ((.def_10 (not .s.1)))
(let ((.def_12 (and .def_10 .s.0)))
(let ((.def_15 (and .def_12 .def_14)))
(let ((.def_18 (and .def_15 .def_17)))
(let ((.def_21 (and .def_18 .def_20)))
.def_21)))))))) (state |.s.1| |.s.0| |.s.2| |.s.3| |.s.4| |main.xa| |main.ya| |main.x| |main.y|))))
(assert (forall ((|.s.2| Bool) (|.s.3| Bool) (|.s.0| Bool) (|.s.1| Bool) (|.s.4.next| Bool) (|.s.0.next| Bool) (|.s.1.next| Bool) (|.s.2.next| Bool) (|.s.3.next| Bool) (|main.xa.next| Int) (|main.xa| Int) (|main.ya.next| Int) (|main.ya| Int) (|main.x.next| Int) (|main.x| Int) (|main.y.next| Int) (|main.y| Int) (|.inputVar.0| Int) (|.s.4| Bool)) (=> (and (state |.s.1| |.s.0| |.s.2| |.s.3| |.s.4| |main.xa| |main.ya| |main.x| |main.y|) (let ((.def_22 (not .s.0)))
(let ((.def_10 (not .s.1)))
(let ((.def_23 (and .def_10 .def_22)))
(let ((.def_14 (not .s.2)))
(let ((.def_24 (and .def_14 .def_23)))
(let ((.def_17 (not .s.3)))
(let ((.def_25 (and .def_17 .def_24)))
(let ((.def_20 (not .s.4)))
(let ((.def_298 (and .def_20 .def_25)))
(let ((.def_299 (not .def_298)))
(let ((.def_63 (not .s.4.next)))
(let ((.def_35 (not .s.0.next)))
(let ((.def_33 (not .s.1.next)))
(let ((.def_36 (and .def_33 .def_35)))
(let ((.def_31 (not .s.2.next)))
(let ((.def_37 (and .def_31 .def_36)))
(let ((.def_29 (not .s.3.next)))
(let ((.def_38 (and .def_29 .def_37)))
(let ((.def_64 (and .def_38 .def_63)))
(let ((.def_43 (= main.xa main.xa.next)))
(let ((.def_65 (and .def_43 .def_64)))
(let ((.def_47 (= main.ya main.ya.next)))
(let ((.def_66 (and .def_47 .def_65)))
(let ((.def_51 (= main.x main.x.next)))
(let ((.def_67 (and .def_51 .def_66)))
(let ((.def_55 (= main.y main.y.next)))
(let ((.def_68 (and .def_55 .def_67)))
(let ((.def_300 (or .def_68 .def_299)))
(let ((.def_292 (= main.xa.next 0)))
(let ((.def_94 (and .s.1.next .def_35)))
(let ((.def_142 (and .def_31 .def_94)))
(let ((.def_143 (and .def_29 .def_142)))
(let ((.def_144 (and .def_63 .def_143)))
(let ((.def_293 (and .def_144 .def_292)))
(let ((.def_291 (= main.ya.next 0)))
(let ((.def_294 (and .def_291 .def_293)))
(let ((.def_295 (and .def_51 .def_294)))
(let ((.def_296 (and .def_55 .def_295)))
(let ((.def_12 (and .def_10 .s.0)))
(let ((.def_15 (and .def_12 .def_14)))
(let ((.def_18 (and .def_15 .def_17)))
(let ((.def_21 (and .def_18 .def_20)))
(let ((.def_290 (not .def_21)))
(let ((.def_297 (or .def_290 .def_296)))
(let ((.def_301 (and .def_297 .def_300)))
(let ((.def_75 (and .s.1.next .s.0.next)))
(let ((.def_209 (and .def_31 .def_75)))
(let ((.def_283 (and .def_29 .def_209)))
(let ((.def_284 (and .def_63 .def_283)))
(let ((.def_285 (and .def_43 .def_284)))
(let ((.def_286 (and .def_47 .def_285)))
(let ((.def_287 (and .def_51 .def_286)))
(let ((.def_288 (and .def_55 .def_287)))
(let ((.def_70 (and .s.1 .def_22)))
(let ((.def_138 (and .def_14 .def_70)))
(let ((.def_270 (and .def_17 .def_138)))
(let ((.def_271 (and .def_20 .def_270)))
(let ((.def_205 (= .inputVar.0 0)))
(let ((.def_281 (and .def_205 .def_271)))
(let ((.def_282 (not .def_281)))
(let ((.def_289 (or .def_282 .def_288)))
(let ((.def_302 (and .def_289 .def_301)))
(let ((.def_181 (and .def_33 .s.0.next)))
(let ((.def_249 (and .s.2.next .def_181)))
(let ((.def_274 (and .s.3.next .def_249)))
(let ((.def_275 (and .def_63 .def_274)))
(let ((.def_276 (and .def_43 .def_275)))
(let ((.def_277 (and .def_47 .def_276)))
(let ((.def_278 (and .def_51 .def_277)))
(let ((.def_279 (and .def_55 .def_278)))
(let ((.def_206 (not .def_205)))
(let ((.def_272 (and .def_206 .def_271)))
(let ((.def_273 (not .def_272)))
(let ((.def_280 (or .def_273 .def_279)))
(let ((.def_303 (and .def_280 .def_302)))
(let ((.def_130 (and .s.2.next .def_36)))
(let ((.def_263 (and .def_29 .def_130)))
(let ((.def_264 (and .def_63 .def_263)))
(let ((.def_229 (* (- 1) main.x.next)))
(let ((.def_88 (* 2 main.ya)))
(let ((.def_260 (+ .def_88 .def_229)))
(let ((.def_261 (+ main.xa .def_260)))
(let ((.def_262 (= .def_261 0)))
(let ((.def_265 (and .def_262 .def_264)))
(let ((.def_266 (and .def_43 .def_265)))
(let ((.def_267 (and .def_47 .def_266)))
(let ((.def_268 (and .def_55 .def_267)))
(let ((.def_58 (and .s.1 .s.0)))
(let ((.def_118 (and .def_14 .def_58)))
(let ((.def_257 (and .def_17 .def_118)))
(let ((.def_258 (and .def_20 .def_257)))
(let ((.def_259 (not .def_258)))
(let ((.def_269 (or .def_259 .def_268)))
(let ((.def_304 (and .def_269 .def_303)))
(let ((.def_250 (and .def_29 .def_249)))
(let ((.def_251 (and .def_63 .def_250)))
(let ((.def_242 (* (- 1) main.ya)))
(let ((.def_246 (+ .def_242 main.y.next)))
(let ((.def_244 (* 2 main.xa)))
(let ((.def_247 (+ .def_244 .def_246)))
(let ((.def_248 (= .def_247 0)))
(let ((.def_252 (and .def_248 .def_251)))
(let ((.def_253 (and .def_43 .def_252)))
(let ((.def_254 (and .def_47 .def_253)))
(let ((.def_255 (and .def_51 .def_254)))
(let ((.def_107 (and .s.2 .def_23)))
(let ((.def_239 (and .def_17 .def_107)))
(let ((.def_240 (and .def_20 .def_239)))
(let ((.def_241 (not .def_240)))
(let ((.def_256 (or .def_241 .def_255)))
(let ((.def_305 (and .def_256 .def_304)))
(let ((.def_95 (and .s.2.next .def_94)))
(let ((.def_232 (and .def_29 .def_95)))
(let ((.def_233 (and .def_63 .def_232)))
(let ((.def_230 (+ main.x .def_229)))
(let ((.def_231 (= .def_230 (- 1))))
(let ((.def_234 (and .def_231 .def_233)))
(let ((.def_235 (and .def_43 .def_234)))
(let ((.def_236 (and .def_47 .def_235)))
(let ((.def_237 (and .def_55 .def_236)))
(let ((.def_84 (and .def_12 .s.2)))
(let ((.def_226 (and .def_17 .def_84)))
(let ((.def_227 (and .def_20 .def_226)))
(let ((.def_228 (not .def_227)))
(let ((.def_238 (or .def_228 .def_237)))
(let ((.def_306 (and .def_238 .def_305)))
(let ((.def_76 (and .s.2.next .def_75)))
(let ((.def_219 (and .def_29 .def_76)))
(let ((.def_220 (and .def_63 .def_219)))
(let ((.def_221 (and .def_43 .def_220)))
(let ((.def_222 (and .def_47 .def_221)))
(let ((.def_223 (and .def_51 .def_222)))
(let ((.def_224 (and .def_55 .def_223)))
(let ((.def_71 (and .s.2 .def_70)))
(let ((.def_202 (and .def_17 .def_71)))
(let ((.def_203 (and .def_20 .def_202)))
(let ((.def_217 (and .def_203 .def_205)))
(let ((.def_218 (not .def_217)))
(let ((.def_225 (or .def_218 .def_224)))
(let ((.def_307 (and .def_225 .def_306)))
(let ((.def_210 (and .s.3.next .def_209)))
(let ((.def_211 (and .def_63 .def_210)))
(let ((.def_212 (and .def_43 .def_211)))
(let ((.def_213 (and .def_47 .def_212)))
(let ((.def_214 (and .def_51 .def_213)))
(let ((.def_215 (and .def_55 .def_214)))
(let ((.def_207 (and .def_203 .def_206)))
(let ((.def_208 (not .def_207)))
(let ((.def_216 (or .def_208 .def_215)))
(let ((.def_308 (and .def_216 .def_307)))
(let ((.def_193 (* (- 1) main.y.next)))
(let ((.def_194 (+ main.y .def_193)))
(let ((.def_195 (+ main.x .def_194)))
(let ((.def_196 (= .def_195 0)))
(let ((.def_111 (and .s.3.next .def_37)))
(let ((.def_112 (and .def_63 .def_111)))
(let ((.def_197 (and .def_112 .def_196)))
(let ((.def_198 (and .def_43 .def_197)))
(let ((.def_199 (and .def_47 .def_198)))
(let ((.def_200 (and .def_51 .def_199)))
(let ((.def_59 (and .s.2 .def_58)))
(let ((.def_190 (and .def_17 .def_59)))
(let ((.def_191 (and .def_20 .def_190)))
(let ((.def_192 (not .def_191)))
(let ((.def_201 (or .def_192 .def_200)))
(let ((.def_309 (and .def_201 .def_308)))
(let ((.def_182 (and .def_31 .def_181)))
(let ((.def_183 (and .s.3.next .def_182)))
(let ((.def_184 (and .def_63 .def_183)))
(let ((.def_176 (* 2 main.y)))
(let ((.def_177 (* (- 1) main.x)))
(let ((.def_178 (+ .def_177 .def_176)))
(let ((.def_179 (+ main.xa.next .def_178)))
(let ((.def_180 (= .def_179 0)))
(let ((.def_185 (and .def_180 .def_184)))
(let ((.def_186 (and .def_47 .def_185)))
(let ((.def_187 (and .def_51 .def_186)))
(let ((.def_188 (and .def_55 .def_187)))
(let ((.def_169 (and .s.3 .def_24)))
(let ((.def_170 (and .def_20 .def_169)))
(let ((.def_171 (not .def_170)))
(let ((.def_189 (or .def_171 .def_188)))
(let ((.def_310 (and .def_189 .def_309)))
(let ((.def_162 (and .s.3.next .def_142)))
(let ((.def_163 (and .def_63 .def_162)))
(let ((.def_124 (* (- 1) main.y)))
(let ((.def_158 (* (- 2) main.x)))
(let ((.def_159 (+ .def_158 .def_124)))
(let ((.def_160 (+ main.ya.next .def_159)))
(let ((.def_161 (= .def_160 0)))
(let ((.def_164 (and .def_161 .def_163)))
(let ((.def_165 (and .def_43 .def_164)))
(let ((.def_166 (and .def_51 .def_165)))
(let ((.def_167 (and .def_55 .def_166)))
(let ((.def_150 (and .def_15 .s.3)))
(let ((.def_151 (and .def_20 .def_150)))
(let ((.def_152 (not .def_151)))
(let ((.def_168 (or .def_152 .def_167)))
(let ((.def_311 (and .def_168 .def_310)))
(let ((.def_145 (and .def_43 .def_144)))
(let ((.def_146 (and .def_47 .def_145)))
(let ((.def_147 (and .def_51 .def_146)))
(let ((.def_148 (and .def_55 .def_147)))
(let ((.def_139 (and .s.3 .def_138)))
(let ((.def_140 (and .def_20 .def_139)))
(let ((.def_141 (not .def_140)))
(let ((.def_149 (or .def_141 .def_148)))
(let ((.def_312 (and .def_149 .def_311)))
(let ((.def_131 (and .s.3.next .def_130)))
(let ((.def_132 (and .def_63 .def_131)))
(let ((.def_127 (+ .def_124 main.y.next)))
(let ((.def_128 (+ main.x .def_127)))
(let ((.def_129 (= .def_128 0)))
(let ((.def_133 (and .def_129 .def_132)))
(let ((.def_134 (and .def_43 .def_133)))
(let ((.def_135 (and .def_47 .def_134)))
(let ((.def_136 (and .def_51 .def_135)))
(let ((.def_119 (and .s.3 .def_118)))
(let ((.def_120 (and .def_20 .def_119)))
(let ((.def_121 (not .def_120)))
(let ((.def_137 (or .def_121 .def_136)))
(let ((.def_313 (and .def_137 .def_312)))
(let ((.def_113 (and .def_43 .def_112)))
(let ((.def_114 (and .def_47 .def_113)))
(let ((.def_115 (and .def_51 .def_114)))
(let ((.def_116 (and .def_55 .def_115)))
(let ((.def_108 (and .s.3 .def_107)))
(let ((.def_109 (and .def_20 .def_108)))
(let ((.def_110 (not .def_109)))
(let ((.def_117 (or .def_110 .def_116)))
(let ((.def_314 (and .def_117 .def_313)))
(let ((.def_89 (+ main.xa .def_88)))
(let ((.def_91 (<= 0 .def_89)))
(let ((.def_103 (not .def_91)))
(let ((.def_85 (and .s.3 .def_84)))
(let ((.def_86 (and .def_20 .def_85)))
(let ((.def_104 (and .def_86 .def_103)))
(let ((.def_105 (not .def_104)))
(let ((.def_40 (and .def_38 .s.4.next)))
(let ((.def_44 (and .def_40 .def_43)))
(let ((.def_48 (and .def_44 .def_47)))
(let ((.def_52 (and .def_48 .def_51)))
(let ((.def_56 (and .def_52 .def_55)))
(let ((.def_106 (or .def_56 .def_105)))
(let ((.def_315 (and .def_106 .def_314)))
(let ((.def_96 (and .s.3.next .def_95)))
(let ((.def_97 (and .def_63 .def_96)))
(let ((.def_98 (and .def_43 .def_97)))
(let ((.def_99 (and .def_47 .def_98)))
(let ((.def_100 (and .def_51 .def_99)))
(let ((.def_101 (and .def_55 .def_100)))
(let ((.def_92 (and .def_86 .def_91)))
(let ((.def_93 (not .def_92)))
(let ((.def_102 (or .def_93 .def_101)))
(let ((.def_316 (and .def_102 .def_315)))
(let ((.def_77 (and .s.3.next .def_76)))
(let ((.def_78 (and .def_63 .def_77)))
(let ((.def_79 (and .def_43 .def_78)))
(let ((.def_80 (and .def_47 .def_79)))
(let ((.def_81 (and .def_51 .def_80)))
(let ((.def_82 (and .def_55 .def_81)))
(let ((.def_72 (and .s.3 .def_71)))
(let ((.def_73 (and .def_20 .def_72)))
(let ((.def_74 (not .def_73)))
(let ((.def_83 (or .def_74 .def_82)))
(let ((.def_317 (and .def_83 .def_316)))
(let ((.def_60 (and .s.3 .def_59)))
(let ((.def_61 (and .def_20 .def_60)))
(let ((.def_62 (not .def_61)))
(let ((.def_69 (or .def_62 .def_68)))
(let ((.def_318 (and .def_69 .def_317)))
(let ((.def_26 (and .s.4 .def_25)))
(let ((.def_27 (not .def_26)))
(let ((.def_57 (or .def_27 .def_56)))
(let ((.def_319 (and .def_57 .def_318)))
.def_319)))))))))))))))))))))))))))))))))))))))))))))))))))))))))))))))))))))))))))))))))))))))))))))))))))))))))))))))))))))))))))))))))))))))))))))))))))))))))))))))))))))))))))))))))))))))))))))))))))))))))))))))))))))))))))))))))))))))))))))))))))))))))))))))))))))))))))))))))))) (state |.s.1.next| |.s.0.next| |.s.2.next| |.s.3.next| |.s.4.next| |main.xa.next| |main.ya.next| |main.x.next| |main.y.next|))))
(assert (forall ((|.s.2| Bool) (|.s.3| Bool) (|.s.0| Bool) (|.s.1| Bool) (|.s.4.next| Bool) (|.s.0.next| Bool) (|.s.1.next| Bool) (|.s.2.next| Bool) (|.s.3.next| Bool) (|main.xa.next| Int) (|main.xa| Int) (|main.ya.next| Int) (|main.ya| Int) (|main.x.next| Int) (|main.x| Int) (|main.y.next| Int) (|main.y| Int) (|.inputVar.0| Int) (|.s.4| Bool)) (=> (state |.s.1| |.s.0| |.s.2| |.s.3| |.s.4| |main.xa| |main.ya| |main.x| |main.y|) (let ((.def_22 (not .s.0)))
(let ((.def_10 (not .s.1)))
(let ((.def_23 (and .def_10 .def_22)))
(let ((.def_14 (not .s.2)))
(let ((.def_24 (and .def_14 .def_23)))
(let ((.def_17 (not .s.3)))
(let ((.def_25 (and .def_17 .def_24)))
(let ((.def_26 (and .s.4 .def_25)))
(let ((.def_27 (not .def_26)))
.def_27))))))))))))
(check-sat)
